a b c d e f g h i j
0 661 696 552 293 387 674 402 653 627
351 0 427 636 441 628 408 638 690 284
662 596 0 255 557 701 539 297 684 388
402 446 575 0 369 570 345 742 584 634
308 458 532 446 0 357 718 500 475 290
674 660 282 283 514 0 649 360 643 484
333 748 399 508 675 426 0 595 532 714
559 365 458 583 552 253 635 0 332 633
388 577 292 628 623 380 643 277 0 634
402 362 282 657 311 263 613 448 382 0